(set-logic QF_S)
(declare-fun var0 () String)
(assert (RegexIn var0 (RegexConcat (RegexUnion (RegexUnion (Str2Reg "0") (Str2Reg "111")) (RegexUnion (Str2Reg "2") (Str2Reg "333"))) (RegexConcat (RegexUnion (RegexStar (Str2Reg "4")) (RegexStar (Str2Reg "55"))) (RegexConcat (RegexUnion (RegexPlus (Str2Reg "666")) (RegexPlus (Str2Reg "777"))) (RegexConcat (RegexPlus (RegexUnion (Str2Reg "8") (Str2Reg "99"))) (RegexConcat (RegexStar (RegexStar (Str2Reg "aa"))) (RegexConcat (RegexPlus (RegexStar (Str2Reg "bbb"))) (RegexConcat (RegexStar (RegexUnion (Str2Reg "c") (Str2Reg "ddd"))) (RegexConcat (RegexStar (RegexPlus (Str2Reg "eee"))) (RegexConcat (RegexPlus (RegexPlus (Str2Reg "fff"))) (RegexUnion (RegexUnion (Str2Reg "g") (Str2Reg "h")) (RegexUnion (Str2Reg "ii") (Str2Reg "jjj"))))))))))))))
(assert (<= 76 (Length var0)))
(check-sat)